n = 50;
C = 251;
w = [306,463,451,204,172,36,255,284,254,258,177,291,93,254,47,54,16,399,453,188,71,275,353,165,497,328,83,414,279,92,126,275,124,269,345,60,428,450,339,468,144,473,11,37,321,479,8,318,249,431];
p = [295,434,464,210,142,23,259,315,296,268,156,278,131,295,51,42,52,400,425,144,23,232,368,162,525,329,56,377,325,92,163,256,106,235,369,64,405,420,330,479,123,471,9,70,330,433,-42,273,278,384];
